(declare-fun temp10820_1 () (_ BitVec 64))
(declare-fun var1051073 () (_ BitVec 64))
(declare-fun temp10820_2 () (_ BitVec 64))
(declare-fun var132043 () (_ BitVec 64))
(declare-fun temp10820_3 () (_ BitVec 64))
(declare-fun var1313217 () (_ BitVec 64))
(declare-fun temp10820_4 () (_ BitVec 64))
(declare-fun var1706433 () (_ BitVec 64))
(declare-fun temp10820_5 () (_ BitVec 64))
(declare-fun var2296257 () (_ BitVec 64))
(declare-fun temp10820_6 () (_ BitVec 64))
(declare-fun var2886081 () (_ BitVec 64))
(declare-fun temp10820_7 () (_ BitVec 64))
(declare-fun var3475905 () (_ BitVec 64))
(declare-fun temp10820_8 () (_ BitVec 64))
(declare-fun ARGNAME_training_NAMEEND () (_ BitVec 64))
(declare-fun temp10820_9 () (_ BitVec 64))
(declare-fun ARGNAME_input_NAMEEND_DIM () (_ BitVec 64))
(declare-fun var134518 () (_ BitVec 64))
(declare-fun temp10820_10 () (_ BitVec 64))
(declare-fun temp10820_11 () (_ BitVec 64))
(declare-fun temp10820_12 () (_ BitVec 64))
(declare-fun ARGNAME_input_NAMEEND_DIMSIZE
             ()
             (Array (_ BitVec 64) (_ BitVec 64)))
(declare-fun temp10820_13 () (_ BitVec 64))
(declare-fun temp10820_14 () (_ BitVec 64))
(declare-fun temp10820_15 () (_ BitVec 64))
(declare-fun temp10820_16 () (_ BitVec 64))
(declare-fun temp10820_17 () (_ BitVec 64))
(declare-fun temp10820_18 () (_ BitVec 64))
(declare-fun temp10820_19 () (_ BitVec 64))
(declare-fun temp10820_20 () (_ BitVec 64))
(declare-fun temp10820_21 () (_ BitVec 64))
(declare-fun temp10820_22 () (_ BitVec 64))
(declare-fun temp10820_23 () (_ BitVec 64))
(declare-fun temp10820_24 () (_ BitVec 64))
(declare-fun temp10820_25 () (_ BitVec 64))
(declare-fun temp10820_26 () (_ BitVec 64))
(declare-fun temp10820_27 () (_ BitVec 64))
(declare-fun temp10820_28 () (_ BitVec 64))
(declare-fun temp10820_29 () (_ BitVec 64))
(declare-fun temp10820_30 () (_ BitVec 64))
(declare-fun temp10820_31 () (_ BitVec 64))
(declare-fun temp10820_32 () (_ BitVec 64))
(declare-fun temp10820_33 () (_ BitVec 64))
(declare-fun temp10820_34 () (_ BitVec 64))
(declare-fun temp10820_35 () (_ BitVec 64))
(declare-fun var134570 () (_ BitVec 64))
(declare-fun temp10820_36 () (_ BitVec 64))
(declare-fun temp10820_38 () (_ BitVec 64))
(declare-fun temp10820_37 () (_ BitVec 64))
(declare-fun temp10820_39 () (_ BitVec 64))
(declare-fun var134912 () (_ BitVec 64))
(declare-fun temp10820_40 () (_ BitVec 64))
(declare-fun temp10820_42 () (_ BitVec 64))
(declare-fun temp10820_41 () (_ BitVec 64))
(assert (= temp10820_1 #x0000000000000002))
(assert (= var1051073 temp10820_1))
(assert (= temp10820_2 #x0000000000000001))
(assert (= var132043 temp10820_2))
(assert (= temp10820_3 #x0000000000000002))
(assert (= var1313217 temp10820_3))
(assert (= temp10820_4 #x0000000000000002))
(assert (= var1706433 temp10820_4))
(assert (= temp10820_5 #x0000000000000002))
(assert (= var2296257 temp10820_5))
(assert (= temp10820_6 #x0000000000000002))
(assert (= var2886081 temp10820_6))
(assert (= temp10820_7 #x0000000000000002))
(assert (= var3475905 temp10820_7))
(assert (= temp10820_8 #x0000000000000001))
(assert (= ARGNAME_training_NAMEEND temp10820_8))
(assert (= temp10820_9 #x0000000000000002))
(assert (= var134518
   (ite (bvsgt ARGNAME_input_NAMEEND_DIM temp10820_9)
        #x0000000000000001
        #x0000000000000000)))
(assert (= temp10820_10 #x0000000000000001))
(assert (= var134518 temp10820_10))
(assert (= temp10820_11 #x0000000000000000))
(assert (= temp10820_12 temp10820_11))
(assert (= temp10820_13 (select ARGNAME_input_NAMEEND_DIMSIZE temp10820_12)))
(assert (= temp10820_14 #x0000000000000001))
(assert (= temp10820_15 temp10820_14))
(assert (= temp10820_16 (select ARGNAME_input_NAMEEND_DIMSIZE temp10820_15)))
(assert (= temp10820_17 #x0000000000000002))
(assert (= temp10820_18 temp10820_17))
(assert (= temp10820_19 (select ARGNAME_input_NAMEEND_DIMSIZE temp10820_18)))
(assert (= temp10820_20 #x0000000000000003))
(assert (= temp10820_21 temp10820_20))
(assert (= temp10820_22 (select ARGNAME_input_NAMEEND_DIMSIZE temp10820_21)))
(assert (= temp10820_23 #x0000000000000004))
(assert (= temp10820_24 temp10820_23))
(assert (= temp10820_25 (select ARGNAME_input_NAMEEND_DIMSIZE temp10820_24)))
(assert (= temp10820_26 #x0000000000000005))
(assert (= temp10820_27 temp10820_26))
(assert (= temp10820_28 (select ARGNAME_input_NAMEEND_DIMSIZE temp10820_27)))
(assert (= temp10820_29 #x0000000000000000))
(assert (= temp10820_30 temp10820_29))
(assert (= temp10820_31 (select ARGNAME_input_NAMEEND_DIMSIZE temp10820_30)))
(assert (bvsgt ARGNAME_input_NAMEEND_DIM temp10820_29))
(assert (bvsge temp10820_29 (bvneg ARGNAME_input_NAMEEND_DIM)))
(assert (= temp10820_32 #x0000000000000000))
(assert (= temp10820_33 temp10820_32))
(assert (= temp10820_34 (select ARGNAME_input_NAMEEND_DIMSIZE temp10820_33)))
(assert (bvsgt ARGNAME_input_NAMEEND_DIM temp10820_32))
(assert (bvsge temp10820_32 (bvneg ARGNAME_input_NAMEEND_DIM)))
(assert (= temp10820_35 #x0000000000000001))
(assert (= var134570 temp10820_35))
(assert (= temp10820_36 #x0000000000000001))
(assert (= var134570 temp10820_36))
(assert (= temp10820_38 #x0000000000000000))
(assert (= temp10820_37 temp10820_38))
(assert (= temp10820_39 #x0000000000000006))
(assert (= var134912
   (ite (bvslt ARGNAME_input_NAMEEND_DIM temp10820_39)
        #x0000000000000001
        #x0000000000000000)))
(assert (= temp10820_40 #x0000000000000000))
(assert (= var134912 temp10820_40))
(assert (= temp10820_42 #x0000000000000000))
(assert (= temp10820_41 temp10820_42))
(model-add temp10820_1 () (_ BitVec 64) #x0000000000000002)
(model-add var1051073 () (_ BitVec 64) #x0000000000000002)
(model-add temp10820_2 () (_ BitVec 64) #x0000000000000001)
(model-add var132043 () (_ BitVec 64) #x0000000000000001)
(model-add temp10820_3 () (_ BitVec 64) #x0000000000000002)
(model-add var1313217 () (_ BitVec 64) #x0000000000000002)
(model-add temp10820_4 () (_ BitVec 64) #x0000000000000002)
(model-add var1706433 () (_ BitVec 64) #x0000000000000002)
(model-add temp10820_5 () (_ BitVec 64) #x0000000000000002)
(model-add var2296257 () (_ BitVec 64) #x0000000000000002)
(model-add temp10820_6 () (_ BitVec 64) #x0000000000000002)
(model-add var2886081 () (_ BitVec 64) #x0000000000000002)
(model-add temp10820_7 () (_ BitVec 64) #x0000000000000002)
(model-add var3475905 () (_ BitVec 64) #x0000000000000002)
(model-add temp10820_8 () (_ BitVec 64) #x0000000000000001)
(model-add ARGNAME_training_NAMEEND () (_ BitVec 64) #x0000000000000001)




